c Simple SAT benchmark - 3-SAT with 10 variables and 30 clauses
c This is a satisfiable instance for benchmarking CDCL performance
p cnf 10 30
1 2 3 0
-1 2 4 0
1 -2 5 0
-1 -2 6 0
3 4 5 0
-3 4 6 0
3 -4 7 0
-3 -4 8 0
5 6 7 0
-5 6 8 0
5 -6 9 0
-5 -6 10 0
7 8 9 0
-7 8 10 0
7 -8 1 0
-7 -8 2 0
9 10 1 0
-9 10 2 0
9 -10 3 0
-9 -10 4 0
1 3 5 0
2 4 6 0
-1 -3 7 0
-2 -4 8 0
1 4 9 0
2 5 10 0
-1 -5 -9 0
-2 -6 -10 0
3 6 9 0
4 7 10 0
